c "665987.clq"
p edge 253 3792
e 1 17
e 1 18
e 1 19
e 1 20
e 1 21
e 1 23
e 1 26
e 1 27
e 1 30
e 1 36
e 1 38
e 1 39
e 1 47
e 1 59
e 1 62
e 1 73
e 1 76
e 1 81
e 1 82
e 1 85
e 1 93
e 1 98
e 1 117
e 1 123
e 1 128
e 1 131
e 1 159
e 1 180
e 1 182
e 1 186
e 1 194
e 1 197
e 1 201
e 1 217
e 2 17
e 2 18
e 2 19
e 2 20
e 2 21
e 2 22
e 2 23
e 2 24
e 2 26
e 2 27
e 2 29
e 2 33
e 2 35
e 2 37
e 2 39
e 2 49
e 2 51
e 2 56
e 2 65
e 2 69
e 2 70
e 2 71
e 2 72
e 2 84
e 2 88
e 2 94
e 2 95
e 2 104
e 2 109
e 2 110
e 2 125
e 2 128
e 2 131
e 2 133
e 2 144
e 2 145
e 2 147
e 2 150
e 2 154
e 2 161
e 2 174
e 2 176
e 2 191
e 2 213
e 2 224
e 2 231
e 2 246
e 3 17
e 3 18
e 3 19
e 3 20
e 3 21
e 3 22
e 3 24
e 3 26
e 3 28
e 3 30
e 3 36
e 3 40
e 3 44
e 3 45
e 3 46
e 3 47
e 3 56
e 3 58
e 3 63
e 3 65
e 3 67
e 3 71
e 3 80
e 3 81
e 3 84
e 3 86
e 3 97
e 3 103
e 3 121
e 3 124
e 3 130
e 3 152
e 3 160
e 3 166
e 3 173
e 3 198
e 3 203
e 3 222
e 3 224
e 3 240
e 3 246
e 3 248
e 4 17
e 4 18
e 4 19
e 4 20
e 4 22
e 4 23
e 4 25
e 4 33
e 4 34
e 4 35
e 4 37
e 4 49
e 4 57
e 4 67
e 4 69
e 4 74
e 4 80
e 4 81
e 4 93
e 4 97
e 4 104
e 4 109
e 4 112
e 4 118
e 4 124
e 4 128
e 4 134
e 4 137
e 4 158
e 4 170
e 4 182
e 4 188
e 4 191
e 4 210
e 4 218
e 4 228
e 4 233
e 4 246
e 5 17
e 5 18
e 5 19
e 5 20
e 5 21
e 5 22
e 5 23
e 5 24
e 5 26
e 5 27
e 5 31
e 5 32
e 5 35
e 5 38
e 5 41
e 5 42
e 5 47
e 5 49
e 5 50
e 5 55
e 5 60
e 5 63
e 5 66
e 5 70
e 5 71
e 5 75
e 5 87
e 5 88
e 5 89
e 5 92
e 5 95
e 5 97
e 5 98
e 5 104
e 5 105
e 5 107
e 5 121
e 5 135
e 5 137
e 5 148
e 5 153
e 5 176
e 5 180
e 5 183
e 5 185
e 5 186
e 5 197
e 5 201
e 5 221
e 5 223
e 5 226
e 5 242
e 5 253
e 6 17
e 6 19
e 6 21
e 6 30
e 6 31
e 6 38
e 6 61
e 6 81
e 6 112
e 6 151
e 6 205
e 6 214
e 6 231
e 7 17
e 7 18
e 7 19
e 7 20
e 7 21
e 7 22
e 7 23
e 7 24
e 7 28
e 7 32
e 7 33
e 7 40
e 7 41
e 7 42
e 7 44
e 7 45
e 7 48
e 7 50
e 7 52
e 7 55
e 7 58
e 7 59
e 7 61
e 7 63
e 7 66
e 7 73
e 7 74
e 7 81
e 7 83
e 7 84
e 7 91
e 7 94
e 7 99
e 7 101
e 7 108
e 7 113
e 7 120
e 7 123
e 7 126
e 7 129
e 7 131
e 7 133
e 7 160
e 7 165
e 7 176
e 7 181
e 7 187
e 7 190
e 7 196
e 7 215
e 7 220
e 7 251
e 8 17
e 8 18
e 8 20
e 8 27
e 8 28
e 8 32
e 8 33
e 8 34
e 8 36
e 8 39
e 8 48
e 8 51
e 8 52
e 8 54
e 8 55
e 8 67
e 8 73
e 8 75
e 8 83
e 8 92
e 8 97
e 8 98
e 8 111
e 8 114
e 8 121
e 8 122
e 8 132
e 8 140
e 8 163
e 8 171
e 8 175
e 8 189
e 8 213
e 8 222
e 9 17
e 9 18
e 9 20
e 9 21
e 9 22
e 9 23
e 9 25
e 9 27
e 9 28
e 9 29
e 9 31
e 9 33
e 9 34
e 9 40
e 9 44
e 9 45
e 9 46
e 9 53
e 9 54
e 9 55
e 9 56
e 9 57
e 9 58
e 9 68
e 9 72
e 9 78
e 9 79
e 9 85
e 9 100
e 9 106
e 9 111
e 9 112
e 9 123
e 9 125
e 9 130
e 9 148
e 9 150
e 9 159
e 9 171
e 9 174
e 9 182
e 9 192
e 9 195
e 9 204
e 9 208
e 9 212
e 9 215
e 9 220
e 9 225
e 9 227
e 9 229
e 9 242
e 9 246
e 10 17
e 10 18
e 10 19
e 10 20
e 10 21
e 10 22
e 10 24
e 10 25
e 10 33
e 10 35
e 10 38
e 10 49
e 10 50
e 10 57
e 10 60
e 10 64
e 10 66
e 10 73
e 10 88
e 10 121
e 10 124
e 10 132
e 10 168
e 10 188
e 10 197
e 10 202
e 10 210
e 10 219
e 10 240
e 10 252
e 11 17
e 11 18
e 11 19
e 11 22
e 11 25
e 11 26
e 11 27
e 11 30
e 11 34
e 11 35
e 11 38
e 11 63
e 11 69
e 11 78
e 11 113
e 11 117
e 11 122
e 11 164
e 11 171
e 11 184
e 12 17
e 12 18
e 12 19
e 12 21
e 12 23
e 12 24
e 12 25
e 12 31
e 12 36
e 12 50
e 12 56
e 12 81
e 12 88
e 12 92
e 12 127
e 12 139
e 12 153
e 12 154
e 12 183
e 12 201
e 12 211
e 12 215
e 12 222
e 12 230
e 12 231
e 13 17
e 13 18
e 13 19
e 13 20
e 13 21
e 13 22
e 13 23
e 13 28
e 13 29
e 13 30
e 13 34
e 13 36
e 13 37
e 13 42
e 13 46
e 13 49
e 13 53
e 13 54
e 13 56
e 13 58
e 13 61
e 13 66
e 13 68
e 13 70
e 13 76
e 13 79
e 13 85
e 13 93
e 13 95
e 13 101
e 13 102
e 13 112
e 13 123
e 13 132
e 13 141
e 13 150
e 13 154
e 13 155
e 13 167
e 13 186
e 13 197
e 13 206
e 13 207
e 13 208
e 13 213
e 13 223
e 13 234
e 13 237
e 14 17
e 14 18
e 14 19
e 14 20
e 14 24
e 14 25
e 14 26
e 14 27
e 14 29
e 14 36
e 14 37
e 14 45
e 14 46
e 14 51
e 14 52
e 14 57
e 14 60
e 14 64
e 14 73
e 14 74
e 14 77
e 14 82
e 14 85
e 14 91
e 14 96
e 14 105
e 14 108
e 14 113
e 14 114
e 14 124
e 14 125
e 14 129
e 14 132
e 14 152
e 14 153
e 14 158
e 14 161
e 14 167
e 14 169
e 14 188
e 14 195
e 14 208
e 14 217
e 14 219
e 14 235
e 14 238
e 14 246
e 14 247
e 15 17
e 15 18
e 15 19
e 15 20
e 15 21
e 15 22
e 15 23
e 15 24
e 15 25
e 15 26
e 15 27
e 15 28
e 15 29
e 15 30
e 15 32
e 15 34
e 15 35
e 15 36
e 15 40
e 15 42
e 15 45
e 15 47
e 15 51
e 15 52
e 15 53
e 15 54
e 15 55
e 15 56
e 15 57
e 15 58
e 15 59
e 15 61
e 15 63
e 15 64
e 15 68
e 15 70
e 15 73
e 15 75
e 15 77
e 15 79
e 15 88
e 15 97
e 15 105
e 15 119
e 15 122
e 15 129
e 15 142
e 15 146
e 15 149
e 15 151
e 15 153
e 15 160
e 15 161
e 15 165
e 15 169
e 15 173
e 15 179
e 15 180
e 15 185
e 15 190
e 15 192
e 15 196
e 15 197
e 15 201
e 15 203
e 15 205
e 15 209
e 15 210
e 15 216
e 15 217
e 15 221
e 15 229
e 15 231
e 15 234
e 15 240
e 15 243
e 15 246
e 16 17
e 16 18
e 16 19
e 16 20
e 16 21
e 16 22
e 16 23
e 16 24
e 16 25
e 16 26
e 16 27
e 16 29
e 16 31
e 16 32
e 16 36
e 16 37
e 16 47
e 16 65
e 16 74
e 16 76
e 16 77
e 16 84
e 16 88
e 16 91
e 16 96
e 16 102
e 16 110
e 16 116
e 16 118
e 16 119
e 16 123
e 16 130
e 16 138
e 16 146
e 16 147
e 16 149
e 16 156
e 16 161
e 16 162
e 16 163
e 16 168
e 16 173
e 16 205
e 16 208
e 16 215
e 16 217
e 16 239
e 17 18
e 17 19
e 17 20
e 17 21
e 17 22
e 17 23
e 17 24
e 17 25
e 17 26
e 17 27
e 17 28
e 17 29
e 17 30
e 17 31
e 17 32
e 17 33
e 17 34
e 17 35
e 17 38
e 17 41
e 17 43
e 17 45
e 17 48
e 17 49
e 17 50
e 17 51
e 17 52
e 17 53
e 17 58
e 17 59
e 17 60
e 17 62
e 17 64
e 17 66
e 17 69
e 17 76
e 17 78
e 17 88
e 17 89
e 17 92
e 17 97
e 17 98
e 17 99
e 17 103
e 17 104
e 17 105
e 17 106
e 17 109
e 17 115
e 17 117
e 17 118
e 17 120
e 17 122
e 17 128
e 17 133
e 17 135
e 17 140
e 17 153
e 17 160
e 17 161
e 17 165
e 17 168
e 17 174
e 17 175
e 17 185
e 17 193
e 17 198
e 17 199
e 17 200
e 17 202
e 17 204
e 17 205
e 17 206
e 17 211
e 17 213
e 17 233
e 17 242
e 17 251
e 17 252
e 18 19
e 18 20
e 18 21
e 18 22
e 18 23
e 18 24
e 18 25
e 18 26
e 18 27
e 18 28
e 18 29
e 18 30
e 18 31
e 18 32
e 18 33
e 18 34
e 18 35
e 18 37
e 18 41
e 18 42
e 18 44
e 18 45
e 18 48
e 18 50
e 18 52
e 18 56
e 18 60
e 18 61
e 18 62
e 18 63
e 18 64
e 18 65
e 18 66
e 18 68
e 18 69
e 18 71
e 18 72
e 18 75
e 18 78
e 18 82
e 18 86
e 18 87
e 18 89
e 18 91
e 18 95
e 18 96
e 18 98
e 18 99
e 18 103
e 18 106
e 18 109
e 18 110
e 18 112
e 18 115
e 18 118
e 18 121
e 18 139
e 18 144
e 18 149
e 18 152
e 18 159
e 18 164
e 18 165
e 18 166
e 18 173
e 18 174
e 18 177
e 18 178
e 18 181
e 18 183
e 18 184
e 18 185
e 18 190
e 18 191
e 18 193
e 18 195
e 18 197
e 18 215
e 18 217
e 18 222
e 18 224
e 18 225
e 18 227
e 18 228
e 18 231
e 18 234
e 18 236
e 18 240
e 18 242
e 18 247
e 19 20
e 19 21
e 19 22
e 19 23
e 19 24
e 19 25
e 19 26
e 19 27
e 19 28
e 19 29
e 19 30
e 19 31
e 19 34
e 19 35
e 19 37
e 19 38
e 19 39
e 19 40
e 19 41
e 19 42
e 19 43
e 19 44
e 19 45
e 19 49
e 19 53
e 19 55
e 19 56
e 19 57
e 19 62
e 19 64
e 19 68
e 19 72
e 19 73
e 19 74
e 19 77
e 19 80
e 19 86
e 19 87
e 19 89
e 19 91
e 19 95
e 19 96
e 19 98
e 19 99
e 19 100
e 19 101
e 19 102
e 19 106
e 19 107
e 19 110
e 19 113
e 19 114
e 19 115
e 19 117
e 19 123
e 19 132
e 19 137
e 19 139
e 19 154
e 19 157
e 19 160
e 19 162
e 19 166
e 19 168
e 19 169
e 19 174
e 19 175
e 19 176
e 19 177
e 19 180
e 19 183
e 19 197
e 19 199
e 19 204
e 19 205
e 19 209
e 19 216
e 19 217
e 19 225
e 19 231
e 19 232
e 19 237
e 19 238
e 19 239
e 19 241
e 19 247
e 19 248
e 19 250
e 19 252
e 20 21
e 20 22
e 20 23
e 20 24
e 20 25
e 20 26
e 20 27
e 20 28
e 20 29
e 20 30
e 20 31
e 20 32
e 20 33
e 20 34
e 20 36
e 20 37
e 20 39
e 20 40
e 20 41
e 20 43
e 20 45
e 20 48
e 20 54
e 20 59
e 20 61
e 20 62
e 20 64
e 20 68
e 20 69
e 20 70
e 20 72
e 20 75
e 20 77
e 20 79
e 20 82
e 20 84
e 20 87
e 20 89
e 20 96
e 20 104
e 20 108
e 20 111
e 20 113
e 20 119
e 20 120
e 20 123
e 20 124
e 20 128
e 20 134
e 20 138
e 20 140
e 20 143
e 20 144
e 20 145
e 20 146
e 20 152
e 20 155
e 20 156
e 20 160
e 20 164
e 20 168
e 20 169
e 20 170
e 20 171
e 20 172
e 20 175
e 20 177
e 20 178
e 20 186
e 20 188
e 20 194
e 20 197
e 20 202
e 20 203
e 20 205
e 20 209
e 20 214
e 20 218
e 20 219
e 20 222
e 20 223
e 20 225
e 20 230
e 20 240
e 20 248
e 20 249
e 20 253
e 21 22
e 21 23
e 21 24
e 21 25
e 21 26
e 21 27
e 21 28
e 21 29
e 21 30
e 21 31
e 21 32
e 21 33
e 21 35
e 21 36
e 21 37
e 21 39
e 21 40
e 21 41
e 21 42
e 21 43
e 21 46
e 21 48
e 21 49
e 21 50
e 21 54
e 21 60
e 21 74
e 21 75
e 21 78
e 21 79
e 21 82
e 21 83
e 21 84
e 21 85
e 21 92
e 21 94
e 21 98
e 21 99
e 21 100
e 21 104
e 21 114
e 21 121
e 21 124
e 21 133
e 21 146
e 21 147
e 21 148
e 21 151
e 21 157
e 21 161
e 21 163
e 21 166
e 21 172
e 21 173
e 21 186
e 21 195
e 21 206
e 21 207
e 21 214
e 21 216
e 21 228
e 21 231
e 21 241
e 21 249
e 22 23
e 22 24
e 22 25
e 22 26
e 22 29
e 22 30
e 22 32
e 22 33
e 22 34
e 22 36
e 22 38
e 22 39
e 22 40
e 22 41
e 22 45
e 22 46
e 22 47
e 22 49
e 22 50
e 22 54
e 22 58
e 22 59
e 22 60
e 22 61
e 22 64
e 22 72
e 22 78
e 22 80
e 22 83
e 22 94
e 22 96
e 22 101
e 22 107
e 22 114
e 22 129
e 22 148
e 22 150
e 22 152
e 22 154
e 22 155
e 22 157
e 22 159
e 22 161
e 22 162
e 22 166
e 22 178
e 22 179
e 22 185
e 22 192
e 22 198
e 22 203
e 22 206
e 22 208
e 22 216
e 22 219
e 22 221
e 22 227
e 22 228
e 22 233
e 22 241
e 22 244
e 22 253
e 23 24
e 23 25
e 23 26
e 23 27
e 23 28
e 23 29
e 23 30
e 23 31
e 23 32
e 23 33
e 23 38
e 23 42
e 23 43
e 23 47
e 23 49
e 23 55
e 23 56
e 23 58
e 23 61
e 23 64
e 23 66
e 23 70
e 23 71
e 23 72
e 23 77
e 23 84
e 23 85
e 23 90
e 23 97
e 23 103
e 23 107
e 23 117
e 23 122
e 23 126
e 23 129
e 23 137
e 23 152
e 23 155
e 23 159
e 23 164
e 23 170
e 23 173
e 23 180
e 23 181
e 23 186
e 23 187
e 23 193
e 23 199
e 23 204
e 23 214
e 23 223
e 23 224
e 23 228
e 23 235
e 23 238
e 23 245
e 23 252
e 23 253
e 24 25
e 24 26
e 24 28
e 24 30
e 24 31
e 24 32
e 24 33
e 24 34
e 24 35
e 24 36
e 24 38
e 24 39
e 24 43
e 24 46
e 24 47
e 24 48
e 24 52
e 24 54
e 24 58
e 24 67
e 24 68
e 24 69
e 24 71
e 24 74
e 24 77
e 24 78
e 24 79
e 24 82
e 24 84
e 24 85
e 24 91
e 24 95
e 24 104
e 24 108
e 24 120
e 24 127
e 24 130
e 24 132
e 24 143
e 24 144
e 24 147
e 24 151
e 24 156
e 24 157
e 24 160
e 24 163
e 24 166
e 24 167
e 24 168
e 24 179
e 24 180
e 24 186
e 24 192
e 24 193
e 24 194
e 24 206
e 24 213
e 24 215
e 24 224
e 24 225
e 24 231
e 24 234
e 24 243
e 24 250
e 25 28
e 25 29
e 25 30
e 25 31
e 25 32
e 25 33
e 25 35
e 25 38
e 25 40
e 25 41
e 25 42
e 25 43
e 25 44
e 25 46
e 25 47
e 25 50
e 25 51
e 25 56
e 25 61
e 25 68
e 25 71
e 25 72
e 25 83
e 25 84
e 25 86
e 25 88
e 25 92
e 25 98
e 25 105
e 25 114
e 25 116
e 25 126
e 25 132
e 25 135
e 25 141
e 25 142
e 25 155
e 25 157
e 25 158
e 25 168
e 25 181
e 25 188
e 25 192
e 25 210
e 25 229
e 25 246
e 25 247
e 25 250
e 25 252
e 26 27
e 26 28
e 26 29
e 26 31
e 26 32
e 26 33
e 26 35
e 26 37
e 26 38
e 26 39
e 26 41
e 26 42
e 26 43
e 26 44
e 26 45
e 26 48
e 26 49
e 26 51
e 26 53
e 26 54
e 26 55
e 26 56
e 26 57
e 26 58
e 26 61
e 26 62
e 26 65
e 26 66
e 26 67
e 26 68
e 26 69
e 26 76
e 26 80
e 26 83
e 26 85
e 26 94
e 26 95
e 26 100
e 26 101
e 26 104
e 26 112
e 26 113
e 26 116
e 26 120
e 26 127
e 26 128
e 26 129
e 26 132
e 26 139
e 26 140
e 26 142
e 26 145
e 26 146
e 26 147
e 26 148
e 26 149
e 26 151
e 26 163
e 26 166
e 26 172
e 26 174
e 26 176
e 26 181
e 26 184
e 26 192
e 26 193
e 26 196
e 26 198
e 26 201
e 26 212
e 26 216
e 26 219
e 26 222
e 26 224
e 26 226
e 26 228
e 26 233
e 26 239
e 26 253
e 27 28
e 27 29
e 27 30
e 27 34
e 27 35
e 27 37
e 27 39
e 27 40
e 27 41
e 27 42
e 27 44
e 27 47
e 27 50
e 27 56
e 27 57
e 27 59
e 27 67
e 27 68
e 27 69
e 27 70
e 27 78
e 27 79
e 27 80
e 27 82
e 27 88
e 27 90
e 27 95
e 27 104
e 27 106
e 27 108
e 27 109
e 27 110
e 27 112
e 27 118
e 27 129
e 27 133
e 27 138
e 27 141
e 27 151
e 27 152
e 27 154
e 27 167
e 27 169
e 27 175
e 27 178
e 27 181
e 27 184
e 27 185
e 27 189
e 27 193
e 27 200
e 27 203
e 27 204
e 27 207
e 27 212
e 27 218
e 27 222
e 27 227
e 27 229
e 27 246
e 27 250
e 27 253
e 28 32
e 28 33
e 28 34
e 28 36
e 28 37
e 28 39
e 28 40
e 28 41
e 28 42
e 28 43
e 28 44
e 28 48
e 28 49
e 28 51
e 28 52
e 28 72
e 28 73
e 28 80
e 28 82
e 28 93
e 28 94
e 28 101
e 28 102
e 28 103
e 28 106
e 28 111
e 28 118
e 28 122
e 28 126
e 28 131
e 28 136
e 28 137
e 28 141
e 28 146
e 28 151
e 28 161
e 28 162
e 28 169
e 28 172
e 28 177
e 28 180
e 28 186
e 28 187
e 28 195
e 28 198
e 28 199
e 28 203
e 28 221
e 28 236
e 28 248
e 28 249
e 29 31
e 29 35
e 29 36
e 29 37
e 29 38
e 29 39
e 29 46
e 29 47
e 29 51
e 29 58
e 29 60
e 29 64
e 29 69
e 29 70
e 29 77
e 29 83
e 29 89
e 29 92
e 29 104
e 29 107
e 29 108
e 29 111
e 29 113
e 29 115
e 29 120
e 29 123
e 29 124
e 29 145
e 29 150
e 29 155
e 29 166
e 29 173
e 29 175
e 29 178
e 29 179
e 29 189
e 29 201
e 29 208
e 29 226
e 29 232
e 30 31
e 30 32
e 30 39
e 30 43
e 30 44
e 30 45
e 30 48
e 30 50
e 30 51
e 30 53
e 30 54
e 30 60
e 30 61
e 30 64
e 30 67
e 30 68
e 30 74
e 30 76
e 30 79
e 30 81
e 30 87
e 30 88
e 30 91
e 30 93
e 30 101
e 30 102
e 30 106
e 30 107
e 30 109
e 30 116
e 30 121
e 30 122
e 30 127
e 30 131
e 30 136
e 30 140
e 30 143
e 30 148
e 30 155
e 30 159
e 30 167
e 30 168
e 30 171
e 30 189
e 30 190
e 30 192
e 30 220
e 30 235
e 30 243
e 30 245
e 30 246
e 30 247
e 31 34
e 31 36
e 31 40
e 31 41
e 31 42
e 31 44
e 31 46
e 31 48
e 31 51
e 31 55
e 31 56
e 31 63
e 31 65
e 31 73
e 31 93
e 31 100
e 31 104
e 31 108
e 31 110
e 31 113
e 31 119
e 31 120
e 31 121
e 31 134
e 31 144
e 31 151
e 31 152
e 31 161
e 31 163
e 31 173
e 31 180
e 31 181
e 31 189
e 31 195
e 31 196
e 31 203
e 31 207
e 31 212
e 31 215
e 31 218
e 31 226
e 31 231
e 31 233
e 31 239
e 31 241
e 32 34
e 32 37
e 32 39
e 32 40
e 32 44
e 32 45
e 32 48
e 32 52
e 32 55
e 32 57
e 32 62
e 32 64
e 32 65
e 32 66
e 32 86
e 32 93
e 32 94
e 32 95
e 32 103
e 32 111
e 32 112
e 32 121
e 32 126
e 32 128
e 32 140
e 32 150
e 32 173
e 32 174
e 32 183
e 32 188
e 32 195
e 32 202
e 32 205
e 32 208
e 32 215
e 32 226
e 32 230
e 32 234
e 32 242
e 32 250
e 33 37
e 33 38
e 33 39
e 33 40
e 33 41
e 33 44
e 33 48
e 33 50
e 33 53
e 33 54
e 33 58
e 33 59
e 33 63
e 33 69
e 33 71
e 33 73
e 33 74
e 33 80
e 33 88
e 33 90
e 33 102
e 33 103
e 33 108
e 33 114
e 33 116
e 33 127
e 33 132
e 33 134
e 33 135
e 33 158
e 33 162
e 33 174
e 33 177
e 33 187
e 33 191
e 33 218
e 33 220
e 33 229
e 33 233
e 33 239
e 33 251
e 34 35
e 34 36
e 34 42
e 34 43
e 34 46
e 34 47
e 34 49
e 34 51
e 34 52
e 34 53
e 34 55
e 34 58
e 34 63
e 34 64
e 34 67
e 34 76
e 34 79
e 34 81
e 34 84
e 34 88
e 34 96
e 34 98
e 34 99
e 34 100
e 34 102
e 34 104
e 34 105
e 34 106
e 34 111
e 34 113
e 34 114
e 34 116
e 34 118
e 34 121
e 34 127
e 34 128
e 34 130
e 34 133
e 34 137
e 34 139
e 34 143
e 34 144
e 34 147
e 34 149
e 34 157
e 34 159
e 34 170
e 34 173
e 34 185
e 34 199
e 34 203
e 34 211
e 34 214
e 34 219
e 34 227
e 34 230
e 34 241
e 34 249
e 34 250
e 35 37
e 35 38
e 35 40
e 35 43
e 35 50
e 35 53
e 35 61
e 35 62
e 35 67
e 35 69
e 35 78
e 35 79
e 35 80
e 35 83
e 35 85
e 35 92
e 35 94
e 35 100
e 35 124
e 35 125
e 35 126
e 35 129
e 35 140
e 35 143
e 35 153
e 35 156
e 35 174
e 35 179
e 35 182
e 35 193
e 35 196
e 35 199
e 35 206
e 35 211
e 35 213
e 35 224
e 35 237
e 35 238
e 35 247
e 36 42
e 36 49
e 36 51
e 36 53
e 36 55
e 36 57
e 36 60
e 36 67
e 36 75
e 36 76
e 36 79
e 36 86
e 36 96
e 36 99
e 36 100
e 36 103
e 36 114
e 36 116
e 36 124
e 36 126
e 36 136
e 36 145
e 36 164
e 36 167
e 36 177
e 36 182
e 36 183
e 36 200
e 36 209
e 36 214
e 36 236
e 36 243
e 36 248
e 37 38
e 37 40
e 37 41
e 37 45
e 37 47
e 37 50
e 37 51
e 37 64
e 37 65
e 37 71
e 37 74
e 37 77
e 37 78
e 37 84
e 37 93
e 37 95
e 37 97
e 37 99
e 37 101
e 37 102
e 37 103
e 37 108
e 37 112
e 37 119
e 37 120
e 37 122
e 37 127
e 37 136
e 37 140
e 37 141
e 37 167
e 37 181
e 37 192
e 37 216
e 37 221
e 37 242
e 37 244
e 38 39
e 38 42
e 38 43
e 38 44
e 38 45
e 38 46
e 38 47
e 38 48
e 38 50
e 38 51
e 38 53
e 38 57
e 38 58
e 38 61
e 38 62
e 38 66
e 38 69
e 38 75
e 38 78
e 38 81
e 38 82
e 38 96
e 38 101
e 38 109
e 38 110
e 38 111
e 38 117
e 38 128
e 38 129
e 38 141
e 38 142
e 38 143
e 38 145
e 38 146
e 38 149
e 38 154
e 38 155
e 38 158
e 38 160
e 38 170
e 38 183
e 38 194
e 38 210
e 38 212
e 38 223
e 38 226
e 38 228
e 38 229
e 38 239
e 38 247
e 38 248
e 39 43
e 39 47
e 39 48
e 39 52
e 39 63
e 39 66
e 39 75
e 39 82
e 39 83
e 39 85
e 39 87
e 39 93
e 39 97
e 39 104
e 39 111
e 39 115
e 39 134
e 39 138
e 39 149
e 39 150
e 39 187
e 39 189
e 39 203
e 39 204
e 39 214
e 39 221
e 39 226
e 39 238
e 39 239
e 39 247
e 40 41
e 40 43
e 40 44
e 40 46
e 40 49
e 40 50
e 40 52
e 40 59
e 40 60
e 40 62
e 40 66
e 40 72
e 40 101
e 40 119
e 40 136
e 40 137
e 40 147
e 40 148
e 40 150
e 40 166
e 40 182
e 40 204
e 40 208
e 40 221
e 40 232
e 41 43
e 41 44
e 41 46
e 41 52
e 41 54
e 41 57
e 41 59
e 41 60
e 41 62
e 41 71
e 41 73
e 41 75
e 41 80
e 41 82
e 41 85
e 41 90
e 41 94
e 41 102
e 41 113
e 41 114
e 41 115
e 41 120
e 41 130
e 41 135
e 41 138
e 41 146
e 41 147
e 41 151
e 41 175
e 41 176
e 41 178
e 41 179
e 41 184
e 41 207
e 41 209
e 41 210
e 41 218
e 41 221
e 41 223
e 41 226
e 41 232
e 41 234
e 41 245
e 41 252
e 42 47
e 42 48
e 42 49
e 42 55
e 42 60
e 42 70
e 42 75
e 42 93
e 42 106
e 42 115
e 42 119
e 42 130
e 42 131
e 42 135
e 42 160
e 42 162
e 42 164
e 42 168
e 42 169
e 42 183
e 42 186
e 42 198
e 42 201
e 42 204
e 42 228
e 42 247
e 43 46
e 43 55
e 43 59
e 43 64
e 43 65
e 43 67
e 43 74
e 43 76
e 43 83
e 43 84
e 43 92
e 43 101
e 43 104
e 43 108
e 43 109
e 43 120
e 43 124
e 43 125
e 43 127
e 43 133
e 43 139
e 43 141
e 43 143
e 43 150
e 43 151
e 43 152
e 43 155
e 43 156
e 43 170
e 43 182
e 43 192
e 43 198
e 43 210
e 43 234
e 43 244
e 43 252
e 44 45
e 44 46
e 44 52
e 44 53
e 44 56
e 44 57
e 44 60
e 44 65
e 44 70
e 44 73
e 44 81
e 44 85
e 44 86
e 44 87
e 44 88
e 44 91
e 44 92
e 44 95
e 44 123
e 44 129
e 44 143
e 44 144
e 44 149
e 44 180
e 44 188
e 44 197
e 44 205
e 44 208
e 44 218
e 44 234
e 44 238
e 44 240
e 44 249
e 45 54
e 45 57
e 45 66
e 45 72
e 45 77
e 45 81
e 45 83
e 45 84
e 45 86
e 45 89
e 45 105
e 45 107
e 45 119
e 45 126
e 45 135
e 45 140
e 45 154
e 45 156
e 45 167
e 45 184
e 45 187
e 45 193
e 45 199
e 45 212
e 45 224
e 45 234
e 45 251
e 45 253
e 46 52
e 46 53
e 46 56
e 46 63
e 46 65
e 46 71
e 46 76
e 46 78
e 46 80
e 46 85
e 46 87
e 46 88
e 46 91
e 46 100
e 46 101
e 46 107
e 46 116
e 46 120
e 46 129
e 46 141
e 46 147
e 46 148
e 46 156
e 46 158
e 46 178
e 46 202
e 46 203
e 46 211
e 46 216
e 46 237
e 46 238
e 47 54
e 47 58
e 47 66
e 47 67
e 47 72
e 47 90
e 47 111
e 47 121
e 47 143
e 47 179
e 47 235
e 48 53
e 48 55
e 48 61
e 48 62
e 48 63
e 48 64
e 48 68
e 48 69
e 48 70
e 48 71
e 48 90
e 48 96
e 48 103
e 48 104
e 48 105
e 48 117
e 48 118
e 48 122
e 48 133
e 48 135
e 48 144
e 48 147
e 48 161
e 48 164
e 48 175
e 48 194
e 48 195
e 48 198
e 48 212
e 48 232
e 48 235
e 48 236
e 48 253
e 49 51
e 49 54
e 49 59
e 49 67
e 49 68
e 49 70
e 49 73
e 49 74
e 49 75
e 49 83
e 49 85
e 49 88
e 49 89
e 49 96
e 49 124
e 49 134
e 49 138
e 49 144
e 49 165
e 49 172
e 49 173
e 49 175
e 49 183
e 49 184
e 49 187
e 49 210
e 49 220
e 49 230
e 49 248
e 49 249
e 50 55
e 50 60
e 50 68
e 50 89
e 50 92
e 50 105
e 50 119
e 50 125
e 50 147
e 50 157
e 50 159
e 50 160
e 50 167
e 50 172
e 50 204
e 50 215
e 51 52
e 51 53
e 51 61
e 51 62
e 51 65
e 51 70
e 51 72
e 51 77
e 51 78
e 51 95
e 51 98
e 51 101
e 51 105
e 51 107
e 51 110
e 51 115
e 51 117
e 51 136
e 51 142
e 51 148
e 51 165
e 51 178
e 51 182
e 51 186
e 51 207
e 51 220
e 51 252
e 52 56
e 52 57
e 52 58
e 52 59
e 52 62
e 52 70
e 52 72
e 52 73
e 52 78
e 52 80
e 52 96
e 52 97
e 52 105
e 52 115
e 52 118
e 52 119
e 52 130
e 52 136
e 52 140
e 52 143
e 52 152
e 52 153
e 52 169
e 52 175
e 52 180
e 52 189
e 52 193
e 52 207
e 52 208
e 52 209
e 52 214
e 52 221
e 52 236
e 53 54
e 53 61
e 53 63
e 53 66
e 53 67
e 53 71
e 53 86
e 53 99
e 53 106
e 53 107
e 53 119
e 53 124
e 53 126
e 53 130
e 53 135
e 53 136
e 53 141
e 53 142
e 53 156
e 53 185
e 53 197
e 53 202
e 53 213
e 53 229
e 53 235
e 53 239
e 54 87
e 54 97
e 54 99
e 54 102
e 54 115
e 54 120
e 54 125
e 54 127
e 54 154
e 54 155
e 54 163
e 54 168
e 54 178
e 54 232
e 54 236
e 54 240
e 54 242
e 55 57
e 55 59
e 55 75
e 55 81
e 55 85
e 55 87
e 55 94
e 55 110
e 55 113
e 55 122
e 55 141
e 55 144
e 55 155
e 55 161
e 55 186
e 55 193
e 55 199
e 55 215
e 55 227
e 55 245
e 56 59
e 56 63
e 56 65
e 56 79
e 56 86
e 56 107
e 56 132
e 56 134
e 56 135
e 56 136
e 56 171
e 56 187
e 56 197
e 56 199
e 56 201
e 56 214
e 56 237
e 56 247
e 57 59
e 57 65
e 57 66
e 57 67
e 57 73
e 57 77
e 57 81
e 57 93
e 57 101
e 57 119
e 57 120
e 57 128
e 57 130
e 57 137
e 57 142
e 57 149
e 57 151
e 57 155
e 57 157
e 57 158
e 57 176
e 57 177
e 57 178
e 57 180
e 57 182
e 57 186
e 57 190
e 57 218
e 57 219
e 57 229
e 57 240
e 57 245
e 57 246
e 57 251
e 58 60
e 58 67
e 58 69
e 58 73
e 58 76
e 58 77
e 58 78
e 58 82
e 58 87
e 58 91
e 58 94
e 58 95
e 58 97
e 58 110
e 58 111
e 58 116
e 58 118
e 58 122
e 58 135
e 58 148
e 58 153
e 58 158
e 58 159
e 58 160
e 58 183
e 58 184
e 58 190
e 58 198
e 58 206
e 58 216
e 58 223
e 58 229
e 58 243
e 58 244
e 59 62
e 59 63
e 59 74
e 59 76
e 59 77
e 59 83
e 59 84
e 59 93
e 59 95
e 59 100
e 59 111
e 59 116
e 59 120
e 59 124
e 59 126
e 59 144
e 59 145
e 59 150
e 59 153
e 59 154
e 59 159
e 59 184
e 59 196
e 59 202
e 59 225
e 59 231
e 59 238
e 60 62
e 60 69
e 60 72
e 60 99
e 60 107
e 60 121
e 60 127
e 60 129
e 60 131
e 60 132
e 60 142
e 60 146
e 60 147
e 60 154
e 60 157
e 60 167
e 60 169
e 60 172
e 60 173
e 60 178
e 60 185
e 60 195
e 60 208
e 60 209
e 60 216
e 60 239
e 60 249
e 61 71
e 61 74
e 61 75
e 61 79
e 61 80
e 61 81
e 61 90
e 61 96
e 61 129
e 61 133
e 61 140
e 61 150
e 61 193
e 61 198
e 61 203
e 61 206
e 61 209
e 61 225
e 61 238
e 61 248
e 61 253
e 62 63
e 62 65
e 62 76
e 62 87
e 62 91
e 62 105
e 62 108
e 62 110
e 62 113
e 62 118
e 62 122
e 62 123
e 62 127
e 62 131
e 62 134
e 62 152
e 62 156
e 62 164
e 62 167
e 62 195
e 62 198
e 62 208
e 62 211
e 62 213
e 62 237
e 62 244
e 63 70
e 63 71
e 63 76
e 63 89
e 63 94
e 63 99
e 63 111
e 63 113
e 63 114
e 63 137
e 63 141
e 63 145
e 63 165
e 63 176
e 63 190
e 63 194
e 63 202
e 63 231
e 63 237
e 63 243
e 64 65
e 64 71
e 64 72
e 64 74
e 64 77
e 64 79
e 64 81
e 64 95
e 64 100
e 64 103
e 64 110
e 64 113
e 64 136
e 64 137
e 64 140
e 64 142
e 64 149
e 64 166
e 64 210
e 64 220
e 64 221
e 64 242
e 64 252
e 65 68
e 65 94
e 65 107
e 65 112
e 65 117
e 65 135
e 65 174
e 65 176
e 65 209
e 65 212
e 65 216
e 65 241
e 65 249
e 65 250
e 66 82
e 66 83
e 66 106
e 66 115
e 66 120
e 66 135
e 66 171
e 66 181
e 66 199
e 66 210
e 66 211
e 66 214
e 66 225
e 66 230
e 66 245
e 67 68
e 67 74
e 67 86
e 67 93
e 67 114
e 67 133
e 67 134
e 67 153
e 67 162
e 67 165
e 67 169
e 67 172
e 67 177
e 67 182
e 67 186
e 67 187
e 67 192
e 67 205
e 67 208
e 67 227
e 67 232
e 67 234
e 68 75
e 68 76
e 68 79
e 68 86
e 68 89
e 68 90
e 68 96
e 68 98
e 68 99
e 68 111
e 68 117
e 68 127
e 68 134
e 68 139
e 68 145
e 68 152
e 68 163
e 68 171
e 68 177
e 68 181
e 68 207
e 68 220
e 68 248
e 68 250
e 69 70
e 69 81
e 69 90
e 69 106
e 69 114
e 69 116
e 69 119
e 69 143
e 69 159
e 69 191
e 69 194
e 69 236
e 70 76
e 70 77
e 70 80
e 70 82
e 70 89
e 70 90
e 70 91
e 70 94
e 70 97
e 70 99
e 70 103
e 70 122
e 70 146
e 70 149
e 70 171
e 70 177
e 70 180
e 70 187
e 70 190
e 70 218
e 70 226
e 70 233
e 70 241
e 70 244
e 70 249
e 71 96
e 71 99
e 71 112
e 71 117
e 71 136
e 71 153
e 71 168
e 71 169
e 71 181
e 71 188
e 71 228
e 71 234
e 71 241
e 72 84
e 72 85
e 72 90
e 72 123
e 72 133
e 72 143
e 72 152
e 72 180
e 73 80
e 73 83
e 73 86
e 73 87
e 73 91
e 73 92
e 73 98
e 73 102
e 73 112
e 73 118
e 73 119
e 73 123
e 73 125
e 73 148
e 73 156
e 73 171
e 73 190
e 73 194
e 73 196
e 73 208
e 73 212
e 73 246
e 73 249
e 74 75
e 74 78
e 74 79
e 74 82
e 74 83
e 74 91
e 74 105
e 74 117
e 74 125
e 74 126
e 74 130
e 74 137
e 74 144
e 74 147
e 74 155
e 74 156
e 74 177
e 74 202
e 74 223
e 74 228
e 74 229
e 74 239
e 75 88
e 75 89
e 75 90
e 75 92
e 75 98
e 75 109
e 75 111
e 75 112
e 75 113
e 75 126
e 75 130
e 75 131
e 75 132
e 75 134
e 75 141
e 75 150
e 75 156
e 75 174
e 75 188
e 75 191
e 75 196
e 75 197
e 75 211
e 75 218
e 75 237
e 75 244
e 76 80
e 76 82
e 76 87
e 76 101
e 76 109
e 76 121
e 76 132
e 76 133
e 76 134
e 76 136
e 76 147
e 76 153
e 76 154
e 76 158
e 76 175
e 76 176
e 76 192
e 76 195
e 76 200
e 76 215
e 76 221
e 76 225
e 77 87
e 77 103
e 77 106
e 77 107
e 77 115
e 77 125
e 77 130
e 77 131
e 77 139
e 77 141
e 77 142
e 77 193
e 77 212
e 77 217
e 77 236
e 77 242
e 77 251
e 78 86
e 78 115
e 78 118
e 78 138
e 78 165
e 78 167
e 78 170
e 78 174
e 78 177
e 78 183
e 78 184
e 78 198
e 78 217
e 78 222
e 78 243
e 79 86
e 79 89
e 79 92
e 79 114
e 79 117
e 79 119
e 79 127
e 79 128
e 79 133
e 79 154
e 79 164
e 79 165
e 79 223
e 79 244
e 80 89
e 80 90
e 80 98
e 80 108
e 80 112
e 80 116
e 80 135
e 80 140
e 80 141
e 80 143
e 80 222
e 80 223
e 80 241
e 81 90
e 81 91
e 81 106
e 81 109
e 81 138
e 81 139
e 81 149
e 81 153
e 81 162
e 81 175
e 81 195
e 81 199
e 81 218
e 81 219
e 81 237
e 82 84
e 82 86
e 82 90
e 82 93
e 82 94
e 82 106
e 82 107
e 82 108
e 82 117
e 82 128
e 82 170
e 82 176
e 82 191
e 82 213
e 82 230
e 82 231
e 82 247
e 82 248
e 83 87
e 83 90
e 83 91
e 83 93
e 83 97
e 83 100
e 83 108
e 83 116
e 83 122
e 83 125
e 83 126
e 83 127
e 83 129
e 83 149
e 83 157
e 83 160
e 83 167
e 83 172
e 83 185
e 83 189
e 83 222
e 83 230
e 83 233
e 83 237
e 83 243
e 84 92
e 84 94
e 84 96
e 84 105
e 84 121
e 84 176
e 84 207
e 84 227
e 84 230
e 84 236
e 85 110
e 85 162
e 85 215
e 86 98
e 86 101
e 86 109
e 86 126
e 86 165
e 86 170
e 86 171
e 86 207
e 86 243
e 86 248
e 87 102
e 87 108
e 87 117
e 87 136
e 87 146
e 87 149
e 87 196
e 87 200
e 87 203
e 87 204
e 87 206
e 87 229
e 87 235
e 87 238
e 88 89
e 88 103
e 88 105
e 88 107
e 88 110
e 88 131
e 88 137
e 88 156
e 88 160
e 89 92
e 89 104
e 89 105
e 89 110
e 89 112
e 89 124
e 89 128
e 89 134
e 89 135
e 89 146
e 89 150
e 89 169
e 89 190
e 89 194
e 89 210
e 89 228
e 90 95
e 90 97
e 90 114
e 90 115
e 90 118
e 90 122
e 90 124
e 90 132
e 90 148
e 90 153
e 90 155
e 90 161
e 90 163
e 90 170
e 90 179
e 90 185
e 90 193
e 90 198
e 90 209
e 90 218
e 90 219
e 90 222
e 90 227
e 90 241
e 90 243
e 90 249
e 90 253
e 91 93
e 91 115
e 91 116
e 91 131
e 91 137
e 91 138
e 91 148
e 91 154
e 91 175
e 91 189
e 91 209
e 91 211
e 91 226
e 91 237
e 92 126
e 92 191
e 92 218
e 92 227
e 92 245
e 93 102
e 93 128
e 93 138
e 93 163
e 93 173
e 93 174
e 93 185
e 94 108
e 94 116
e 94 127
e 94 152
e 94 164
e 94 170
e 94 183
e 94 184
e 94 191
e 94 203
e 94 235
e 94 241
e 94 252
e 95 98
e 95 99
e 95 100
e 95 103
e 95 110
e 95 115
e 95 123
e 95 130
e 95 131
e 95 146
e 95 148
e 95 172
e 95 187
e 95 194
e 95 196
e 95 201
e 95 207
e 95 234
e 95 251
e 96 97
e 96 100
e 96 102
e 96 109
e 96 112
e 96 133
e 96 145
e 96 152
e 96 164
e 96 166
e 96 177
e 96 185
e 96 189
e 96 190
e 96 192
e 96 197
e 96 200
e 96 202
e 96 206
e 96 210
e 96 220
e 96 236
e 96 245
e 97 100
e 97 102
e 97 120
e 97 131
e 97 145
e 97 149
e 97 199
e 97 206
e 97 235
e 97 246
e 98 109
e 98 125
e 98 129
e 98 140
e 98 165
e 98 235
e 98 236
e 99 100
e 99 111
e 99 113
e 99 118
e 99 123
e 99 130
e 99 138
e 99 150
e 99 159
e 99 227
e 99 240
e 100 247
e 101 102
e 101 103
e 101 117
e 101 139
e 101 158
e 101 162
e 101 173
e 101 180
e 101 201
e 102 106
e 102 109
e 102 114
e 102 116
e 102 124
e 102 128
e 102 139
e 102 140
e 102 142
e 102 151
e 102 153
e 102 172
e 102 189
e 102 205
e 102 225
e 102 229
e 102 236
e 102 242
e 102 253
e 103 142
e 103 157
e 103 162
e 103 166
e 103 172
e 103 187
e 103 189
e 103 196
e 103 208
e 103 232
e 104 122
e 104 123
e 104 151
e 104 158
e 104 159
e 104 169
e 104 195
e 104 217
e 104 230
e 104 244
e 104 251
e 105 134
e 105 154
e 105 211
e 105 214
e 105 232
e 106 138
e 106 139
e 106 145
e 106 151
e 106 162
e 106 166
e 106 179
e 106 187
e 106 196
e 106 203
e 106 206
e 106 210
e 106 222
e 106 235
e 106 242
e 106 248
e 107 139
e 107 143
e 107 179
e 107 205
e 107 210
e 107 213
e 108 109
e 108 164
e 108 183
e 108 184
e 108 204
e 108 207
e 108 242
e 108 252
e 108 253
e 109 125
e 109 200
e 109 218
e 109 238
e 109 244
e 109 245
e 110 123
e 110 133
e 110 151
e 110 158
e 110 164
e 110 170
e 110 181
e 110 186
e 110 191
e 110 199
e 110 220
e 110 224
e 110 226
e 110 235
e 110 246
e 111 118
e 111 132
e 111 138
e 111 167
e 111 172
e 111 223
e 112 137
e 112 144
e 112 150
e 112 204
e 112 223
e 112 242
e 113 126
e 113 145
e 113 158
e 113 171
e 113 179
e 113 235
e 113 243
e 114 130
e 114 136
e 114 141
e 114 145
e 114 148
e 114 179
e 114 182
e 114 189
e 114 190
e 114 191
e 114 220
e 114 251
e 115 121
e 115 125
e 115 127
e 115 133
e 115 157
e 115 165
e 115 222
e 115 248
e 116 119
e 116 134
e 116 137
e 116 164
e 116 169
e 116 176
e 116 182
e 116 220
e 116 225
e 116 238
e 116 244
e 117 131
e 117 135
e 117 156
e 117 158
e 117 173
e 117 181
e 117 185
e 117 214
e 117 217
e 118 121
e 118 125
e 118 134
e 118 140
e 118 161
e 118 171
e 118 202
e 118 214
e 118 230
e 118 244
e 118 253
e 119 138
e 119 177
e 119 194
e 119 252
e 120 125
e 120 129
e 120 136
e 120 144
e 120 146
e 120 148
e 120 176
e 120 237
e 120 239
e 121 159
e 121 190
e 121 222
e 121 225
e 121 228
e 122 128
e 122 132
e 122 179
e 123 139
e 123 155
e 123 163
e 123 165
e 123 175
e 123 177
e 123 194
e 123 197
e 123 218
e 123 233
e 123 243
e 124 178
e 124 182
e 124 191
e 124 204
e 125 146
e 125 150
e 125 160
e 125 163
e 125 209
e 125 211
e 125 220
e 125 222
e 125 228
e 125 231
e 126 159
e 126 168
e 126 171
e 126 175
e 126 194
e 126 200
e 126 205
e 126 211
e 126 247
e 127 131
e 127 139
e 127 174
e 127 178
e 127 194
e 127 201
e 127 217
e 128 139
e 128 176
e 128 178
e 128 185
e 128 188
e 128 215
e 129 138
e 129 169
e 129 180
e 129 206
e 129 212
e 129 243
e 130 142
e 130 147
e 130 163
e 130 186
e 130 194
e 130 199
e 130 201
e 130 235
e 131 136
e 131 143
e 131 151
e 131 152
e 132 141
e 132 142
e 132 145
e 132 156
e 132 163
e 132 165
e 132 196
e 132 212
e 132 214
e 132 221
e 132 237
e 133 157
e 133 162
e 133 179
e 133 244
e 134 138
e 134 144
e 134 157
e 134 158
e 134 199
e 134 221
e 134 229
e 134 232
e 134 233
e 134 239
e 135 163
e 135 187
e 135 205
e 135 209
e 135 230
e 135 231
e 136 137
e 136 142
e 136 144
e 136 171
e 136 173
e 136 174
e 136 181
e 136 192
e 136 202
e 136 216
e 137 143
e 137 163
e 137 170
e 137 204
e 137 238
e 137 249
e 138 156
e 138 161
e 138 200
e 138 234
e 139 142
e 139 146
e 139 186
e 139 189
e 139 201
e 139 219
e 139 220
e 140 147
e 140 149
e 140 168
e 140 212
e 140 226
e 141 145
e 141 164
e 141 168
e 141 170
e 141 172
e 141 177
e 141 224
e 141 252
e 143 185
e 143 199
e 143 200
e 143 204
e 143 217
e 144 153
e 144 155
e 144 161
e 144 248
e 144 251
e 145 154
e 145 157
e 145 181
e 145 195
e 145 200
e 145 241
e 145 242
e 146 170
e 146 208
e 147 175
e 147 176
e 147 183
e 147 191
e 147 205
e 147 216
e 147 232
e 148 158
e 148 159
e 148 219
e 149 162
e 149 195
e 149 214
e 149 216
e 149 236
e 150 160
e 150 189
e 150 219
e 150 223
e 150 227
e 151 162
e 151 202
e 151 224
e 152 160
e 152 166
e 152 167
e 152 211
e 152 233
e 152 245
e 152 249
e 152 251
e 153 179
e 153 232
e 153 244
e 154 161
e 154 191
e 154 197
e 154 216
e 155 157
e 155 162
e 155 165
e 155 171
e 155 172
e 155 182
e 155 201
e 155 205
e 155 225
e 155 229
e 155 230
e 155 233
e 156 184
e 156 188
e 156 225
e 157 164
e 157 166
e 157 209
e 157 249
e 158 182
e 158 190
e 158 226
e 158 234
e 159 172
e 159 178
e 159 217
e 159 220
e 159 233
e 159 239
e 160 181
e 160 183
e 160 187
e 160 212
e 160 230
e 160 251
e 161 167
e 161 184
e 161 201
e 161 226
e 161 237
e 161 240
e 161 245
e 161 252
e 162 166
e 162 183
e 162 219
e 162 252
e 163 168
e 163 174
e 164 169
e 164 200
e 165 168
e 165 184
e 165 207
e 165 210
e 165 213
e 165 242
e 167 190
e 167 191
e 167 193
e 167 196
e 167 207
e 167 217
e 167 230
e 168 195
e 168 200
e 168 207
e 169 170
e 169 179
e 169 192
e 169 226
e 169 229
e 169 248
e 169 251
e 170 202
e 170 250
e 170 253
e 171 188
e 171 192
e 171 193
e 171 196
e 171 212
e 171 213
e 171 224
e 172 180
e 172 182
e 172 202
e 172 219
e 172 223
e 172 237
e 172 240
e 172 250
e 173 192
e 173 200
e 173 201
e 173 217
e 173 246
e 174 239
e 175 184
e 176 188
e 176 210
e 176 218
e 176 252
e 177 178
e 177 188
e 177 205
e 177 213
e 177 222
e 177 227
e 178 237
e 178 244
e 179 194
e 179 196
e 179 206
e 180 188
e 180 225
e 180 232
e 181 190
e 181 216
e 181 219
e 181 246
e 182 187
e 182 198
e 182 235
e 182 239
e 182 246
e 183 189
e 183 221
e 183 224
e 183 232
e 184 211
e 184 243
e 185 221
e 185 223
e 185 245
e 186 191
e 186 238
e 187 188
e 187 200
e 187 203
e 187 206
e 187 209
e 187 211
e 187 217
e 188 229
e 188 249
e 188 250
e 188 253
e 189 211
e 189 212
e 189 214
e 189 219
e 189 240
e 190 209
e 191 193
e 191 241
e 192 198
e 192 228
e 192 241
e 193 203
e 193 213
e 193 215
e 193 245
e 193 251
e 194 197
e 194 198
e 194 253
e 195 213
e 195 227
e 195 243
e 196 202
e 197 207
e 197 223
e 197 240
e 197 248
e 197 251
e 198 200
e 198 215
e 198 240
e 199 215
e 200 232
e 200 236
e 201 227
e 202 204
e 202 232
e 202 241
e 203 227
e 203 233
e 203 234
e 203 235
e 203 239
e 203 243
e 205 206
e 205 216
e 205 224
e 205 226
e 205 250
e 206 233
e 206 245
e 207 213
e 207 238
e 208 250
e 209 225
e 209 236
e 209 241
e 210 231
e 210 250
e 212 230
e 212 247
e 214 231
e 215 224
e 215 238
e 216 220
e 216 234
e 216 251
e 217 224
e 217 236
e 217 245
e 218 221
e 218 240
e 219 244
e 223 240
e 224 228
e 224 233
e 224 249
e 225 228
e 231 247
e 231 250
e 239 250
e 241 242
e 241 247
e 243 245
